
Gurobi 6.5.2 (linux64) logging started Sun Sep 18 18:50:12 2016


Gurobi 6.5.2 (linux64) logging started Sun Sep 18 18:50:12 2016

Optimize a model with 201 rows, 3565 columns and 7229 nonzeros
Coefficient statistics:
  Matrix range    [1e+00, 2e+00]
  Objective range [1e+00, 1e+02]
  Bounds range    [1e+00, 1e+00]
  RHS range       [1e+00, 1e+00]
Presolve removed 73 rows and 42 columns
Presolve time: 0.01s
Presolved: 128 rows, 3523 columns, 7069 nonzeros
Variable types: 0 continuous, 3523 integer (3523 binary)

Root relaxation: objective 8.445000e+02, 154 iterations, 0.00 seconds

    Nodes    |    Current Node    |     Objective Bounds      |     Work
 Expl Unexpl |  Obj  Depth IntInf | Incumbent    BestBd   Gap | It/Node Time

     0     0  844.50000    0   20          -  844.50000      -     -    0s
     0     0  848.00000    0    4          -  848.00000      -     -    0s
     0     0  848.50000    0   14          -  848.50000      -     -    0s
     0     0  849.00000    0   16          -  849.00000      -     -    0s
     0     0  849.00000    0   16          -  849.00000      -     -    0s
     0     2  849.00000    0   10          -  849.00000      -     -    0s
  4495  2850  865.96154  144   17          -  851.00000      -   6.9    5s
  7906  5621  860.00000   69    6          -  851.32143      -   6.4   10s

Cutting planes:
  Gomory: 6
  Flow cover: 3
  Zero half: 12
  Lazy constraints: 1126

Explored 8315 nodes (53248 simplex iterations) in 10.07 seconds
Thread count was 8 (of 8 available processors)

Time limit reached
Best objective -, best bound 8.520000000000e+02, gap -
